(set-logic QF_S)
(declare-fun var0 () String)
(assert (str.in.re var0 (re.++ (re.* (re.+ (str.to.re "000"))) (re.++ (re.* (re.* (str.to.re "111"))) (re.++ (re.* (re.union (str.to.re "22") (str.to.re "3"))) (re.++ (re.+ (re.union (str.to.re "44") (str.to.re "5"))) (re.++ (re.union (re.+ (str.to.re "666")) (re.+ (str.to.re "7"))) (re.++ (re.* (re.union (str.to.re "888") (str.to.re "999"))) (re.++ (re.union (re.* (str.to.re "aa")) (re.* (str.to.re "bbb"))) (re.++ (re.* (re.* (str.to.re "cc"))) (re.++ (re.+ (re.union (str.to.re "d") (str.to.re "ee"))) (re.++ (re.+ (re.union (str.to.re "f") (str.to.re "gg"))) (re.++ (re.* (re.union (str.to.re "hhh") (str.to.re "ii"))) (re.++ (re.* (re.union (str.to.re "jj") (str.to.re "kk"))) (re.++ (re.union (re.+ (str.to.re "l")) (re.+ (str.to.re "m"))) (re.++ (re.+ (re.union (str.to.re "n") (str.to.re "ooo"))) (re.++ (re.* (re.union (str.to.re "pp") (str.to.re "qq"))) (re.++ (re.* (re.union (str.to.re "rrr") (str.to.re "s"))) (re.++ (re.* (re.+ (str.to.re "ttt"))) (re.++ (re.union (re.+ (str.to.re "uuu")) (re.+ (str.to.re "v"))) (re.++ (re.+ (re.+ (str.to.re "ww"))) (re.++ (re.* (re.+ (str.to.re "xxx"))) (re.++ (re.* (re.+ (str.to.re "yyy"))) (re.++ (re.* (re.* (str.to.re "zzz"))) (re.++ (re.union (re.* (str.to.re "A")) (re.* (str.to.re "BBB"))) (re.++ (re.union (re.+ (str.to.re "CC")) (re.+ (str.to.re "DDD"))) (re.++ (re.union (re.union (str.to.re "EEE") (str.to.re "F")) (re.union (str.to.re "G") (str.to.re "H"))) (re.++ (re.+ (re.* (str.to.re "III"))) (re.++ (re.union (re.union (str.to.re "J") (str.to.re "K")) (re.union (str.to.re "LLL") (str.to.re "MM"))) (re.++ (re.+ (re.union (str.to.re "NN") (str.to.re "OO"))) (re.++ (re.union (re.+ (str.to.re "PP")) (re.+ (str.to.re "QQ"))) (re.++ (re.+ (re.+ (str.to.re "RR"))) (re.++ (re.* (re.union (str.to.re "SS") (str.to.re "TTT"))) (re.++ (re.* (re.* (str.to.re "UU"))) (re.++ (re.+ (re.* (str.to.re "VVV"))) (re.++ (re.* (re.* (str.to.re "W"))) (re.+ (re.+ (str.to.re "X")))))))))))))))))))))))))))))))))))))))
(check-sat)